computational_data/real_data/solutions/iris_trial_007_lex.sol
Optimal - objective value 7.70000100
      0 r_0                         0                       1
      1 r_1                         0                0.966667
      2 r_2                         1                0.966667
      3 r_3                         0                0.966667
      4 r_4                         0                0.966667
      5 r_5                         1                0.966667
      6 r_6                         0                0.933333
      7 r_7                         0                0.933333
      8 r_8                         1                0.933333
      9 r_9                         0                0.933333
     10 r_10                        0                0.933333
     11 r_11                        0                0.933333
     12 r_12                        0                0.933333
     13 r_13                        0                0.933333
     14 r_14                        0                0.933333
     15 r_15                        0                0.933333
     16 b_0                         1                       1
     17 b_1                         1                0.966667
     18 b_2                         0                0.966667
     19 b_3                         1                0.966667
     20 b_4                         1                0.966667
     21 b_5                         0                0.966667
     22 b_6                         0                0.933333
     23 b_7                         0                0.933333
     24 b_8                         0                0.933333
     25 b_9                         0                0.933333
     26 b_10                        1                0.933333
     27 b_11                        0                0.933333
     28 b_12                        0                0.933333
     29 b_13                        0                0.933333
     30 b_14                        0                0.933333
     31 b_15                        0                0.933333
